sat
(= |goto_symex::&92;guard#1| true)
(= |goto_symex::&92;guard#2| false)
(= |memory_model::choice_rf_1_32_0_9_T_0| false)
(= |memory_model::choice_rf_1_32_2_37_T_1| true)
(= |memory_model::choice_rf_2_36_0_9_T_2| true)
(= |memory_model::choice_rf_2_36_1_33_T_3| false)
(= |memory_model::choice_rf_0_38_0_7_T_4| false)
(= |memory_model::choice_rf_0_38_0_34_T_5| true)
(= |memory_model::choice_rf_0_47_0_17_F_6| false)
(= |memory_model::choice_rf_0_47_1_29_F_7| true)
(= |memory_model::choice_rf_0_47_2_15_F_8| false)
(= |memory_model::choice_rf_0_47_2_33_F_9| false)
(= |memory_model::choice_rf_1_20_0_17_F_10| false)
(= |memory_model::choice_rf_1_20_0_56_F_11| false)
(= |memory_model::choice_rf_1_20_2_15_F_12| false)
(= |memory_model::choice_rf_1_20_2_33_F_13| true)
(= |memory_model::choice_rf_2_9_0_17_F_14| true)
(= |memory_model::choice_rf_2_9_0_56_F_15| false)
(= |memory_model::choice_rf_2_9_1_29_F_16| false)
(= |memory_model::choice_rf_2_23_0_17_F_17| false)
(= |memory_model::choice_rf_2_23_0_56_F_18| false)
(= |memory_model::choice_rf_2_23_1_29_F_19| false)
(= |memory_model::choice_rf_2_23_2_15_F_20| true)
(= |memory_model::choice_rf_0_42_0_10_F_21| false)
(= |memory_model::choice_rf_0_42_1_31_F_22| false)
(= |memory_model::choice_rf_0_42_2_35_F_23| true)
(= |memory_model::choice_rf_1_30_0_10_F_24| true)
(= |memory_model::choice_rf_1_30_2_35_F_25| false)
(= |memory_model::choice_rf_2_34_0_10_F_26| false)
(= |memory_model::choice_rf_2_34_1_31_F_27| true)
(= |memory_model::choice_rf_0_59_0_11_F_28| false)
(= |memory_model::choice_rf_0_59_2_2_F_29| true)
(= |memory_model::choice_rf_0_58_0_12_F_30| false)
(= |memory_model::choice_rf_0_58_2_16_F_31| true)
(= |memory_model::choice_rf_0_44_0_13_F_32| false)
(= |memory_model::choice_rf_0_44_0_43_F_33| true)
(= |memory_model::choice_rf_0_57_0_14_F_34| false)
(= |memory_model::choice_rf_0_62_0_14_F_35| false)
(= |memory_model::choice_rf_0_62_0_61_F_36| true)
(= |memory_model::choice_rf_0_63_0_14_F_37| false)
(= |memory_model::choice_rf_0_63_0_61_F_38| true)
(= |memory_model::choice_rf_0_50_0_20_F_39| true)
(= |memory_model::choice_rf_1_5_0_20_F_40| true)
(= |memory_model::choice_rf_1_5_0_53_F_41| false)
(= |memory_model::choice_rf_1_2_0_21_F_42| true)
(= |memory_model::choice_rf_1_23_0_21_F_43| false)
(= |memory_model::choice_rf_1_23_1_8_F_44| true)
(= |memory_model::choice_rf_1_1_0_22_F_45| true)
(= |memory_model::choice_rf_1_1_2_11_F_46| false)
(= |memory_model::choice_rf_1_1_2_30_F_47| false)
(= |memory_model::choice_rf_2_6_0_22_F_48| true)
(= |memory_model::choice_rf_2_27_0_22_F_49| false)
(= |memory_model::choice_rf_2_27_2_11_F_50| true)
(= |memory_model::choice_rf_0_46_0_23_F_51| false)
(= |memory_model::choice_rf_0_46_1_11_F_52| true)
(= |memory_model::choice_rf_1_4_0_23_F_53| false)
(= |memory_model::choice_rf_1_4_0_52_F_54| false)
(= |memory_model::choice_rf_1_3_0_24_F_55| false)
(= |memory_model::choice_rf_1_19_0_24_F_56| false)
(= |memory_model::choice_rf_1_19_1_10_F_57| true)
(= |memory_model::choice_rf_1_0_0_25_F_58| false)
(= |memory_model::choice_rf_1_0_2_10_F_59| false)
(= |memory_model::choice_rf_1_0_2_29_F_60| false)
(= |memory_model::choice_rf_2_5_0_25_F_61| false)
(= |memory_model::choice_rf_2_5_1_9_F_62| true)
(= |memory_model::choice_rf_2_26_0_25_F_63| false)
(= |memory_model::choice_rf_2_26_1_9_F_64| false)
(= |memory_model::choice_rf_2_26_2_10_F_65| true)
(= |memory_model::choice_rf_0_49_0_28_F_66| false)
(= |memory_model::choice_rf_0_49_1_14_F_67| false)
(= |memory_model::choice_rf_0_49_2_13_F_68| true)
(= |memory_model::choice_rf_1_7_0_28_F_69| true)
(= |memory_model::choice_rf_1_7_2_13_F_70| false)
(= |memory_model::choice_rf_1_22_0_28_F_71| false)
(= |memory_model::choice_rf_1_22_1_14_F_72| false)
(= |memory_model::choice_rf_1_22_2_13_F_73| true)
(= |memory_model::choice_rf_2_4_0_28_F_74| false)
(= |memory_model::choice_rf_2_4_1_14_F_75| true)
(= |memory_model::choice_rf_2_25_0_28_F_76| false)
(= |memory_model::choice_rf_2_25_1_14_F_77| false)
(= |memory_model::choice_rf_2_25_2_13_F_78| true)
(= |memory_model::choice_rf_0_51_0_29_F_79| false)
(= |memory_model::choice_rf_0_51_1_12_F_80| false)
(= |memory_model::choice_rf_0_51_1_27_F_81| true)
(= |memory_model::choice_rf_0_51_2_19_F_82| false)
(= |memory_model::choice_rf_0_51_2_31_F_83| false)
(= |memory_model::choice_rf_1_6_0_29_F_84| true)
(= |memory_model::choice_rf_1_6_0_54_F_85| false)
(= |memory_model::choice_rf_1_6_2_19_F_86| false)
(= |memory_model::choice_rf_1_6_2_31_F_87| false)
(= |memory_model::choice_rf_1_24_0_29_F_88| false)
(= |memory_model::choice_rf_1_24_0_54_F_89| false)
(= |memory_model::choice_rf_1_24_1_12_F_90| false)
(= |memory_model::choice_rf_1_24_2_19_F_91| false)
(= |memory_model::choice_rf_1_24_2_31_F_92| true)
(= |memory_model::choice_rf_2_7_0_29_F_93| false)
(= |memory_model::choice_rf_2_7_0_54_F_94| false)
(= |memory_model::choice_rf_2_7_1_12_F_95| true)
(= |memory_model::choice_rf_2_7_1_27_F_96| false)
(= |memory_model::choice_rf_2_28_0_29_F_97| false)
(= |memory_model::choice_rf_2_28_0_54_F_98| false)
(= |memory_model::choice_rf_2_28_1_12_F_99| false)
(= |memory_model::choice_rf_2_28_1_27_F_100| false)
(= |memory_model::choice_rf_2_28_2_19_F_101| true)
(= |memory_model::choice_rf_0_45_0_30_F_102| false)
(= |memory_model::choice_rf_0_45_1_15_F_103| false)
(= |memory_model::choice_rf_0_45_2_12_F_104| true)
(= |memory_model::choice_rf_1_18_0_30_F_105| false)
(= |memory_model::choice_rf_1_18_1_15_F_106| false)
(= |memory_model::choice_rf_1_18_2_12_F_107| true)
(= |memory_model::choice_rf_2_3_0_30_F_108| false)
(= |memory_model::choice_rf_2_3_1_15_F_109| true)
(= |memory_model::choice_rf_2_22_0_30_F_110| false)
(= |memory_model::choice_rf_2_22_1_15_F_111| false)
(= |memory_model::choice_rf_2_22_2_12_F_112| true)
(= |memory_model::choice_rf_0_48_0_31_F_113| false)
(= |memory_model::choice_rf_0_48_1_13_F_114| false)
(= |memory_model::choice_rf_0_48_1_28_F_115| true)
(= |memory_model::choice_rf_0_48_2_14_F_116| false)
(= |memory_model::choice_rf_0_48_2_32_F_117| false)
(= |memory_model::choice_rf_1_21_0_31_F_118| false)
(= |memory_model::choice_rf_1_21_0_55_F_119| false)
(= |memory_model::choice_rf_1_21_1_13_F_120| false)
(= |memory_model::choice_rf_1_21_2_14_F_121| false)
(= |memory_model::choice_rf_1_21_2_32_F_122| true)
(= |memory_model::choice_rf_2_8_0_31_F_123| false)
(= |memory_model::choice_rf_2_8_0_55_F_124| false)
(= |memory_model::choice_rf_2_8_1_13_F_125| true)
(= |memory_model::choice_rf_2_8_1_28_F_126| false)
(= |memory_model::choice_rf_2_24_0_31_F_127| false)
(= |memory_model::choice_rf_2_24_0_55_F_128| false)
(= |memory_model::choice_rf_2_24_1_13_F_129| false)
(= |memory_model::choice_rf_2_24_1_28_F_130| false)
(= |memory_model::choice_rf_2_24_2_14_F_131| true)
(= |memory_model::choice_rf_0_60_0_32_F_132| false)
(= |memory_model::choice_rf_0_60_1_17_F_133| false)
(= |memory_model::choice_rf_0_60_2_0_F_134| true)
(= |memory_model::choice_rf_1_16_0_32_F_135| false)
(= |memory_model::choice_rf_1_16_2_0_F_136| false)
(= |memory_model::choice_rf_2_1_0_32_F_137| false)
(= |memory_model::choice_rf_2_1_1_17_F_138| false)
(= |memory_model::choice_rf_2_1_2_0_F_139| true)
(= |memory_model::choice_ws-ext_0_9_1_33_T_140| true)
(= |memory_model::choice_ws-ext_0_9_2_37_T_141| true)
(= |memory_model::choice_ws-ext_1_33_2_37_T_142| false)
(= |memory_model::choice_ws-ext_0_17_1_29_F_143| true)
(= |memory_model::choice_ws-ext_0_17_2_15_F_144| true)
(= |memory_model::choice_ws-ext_0_17_2_33_F_145| true)
(= |memory_model::choice_ws-ext_0_56_1_29_F_146| false)
(= |memory_model::choice_ws-ext_0_56_2_15_F_147| false)
(= |memory_model::choice_ws-ext_0_56_2_33_F_148| false)
(= |memory_model::choice_ws-ext_1_29_2_15_F_149| false)
(= |memory_model::choice_ws-ext_1_29_2_33_F_150| false)
(= |memory_model::choice_ws-ext_0_10_1_31_F_151| true)
(= |memory_model::choice_ws-ext_0_10_2_35_F_152| true)
(= |memory_model::choice_ws-ext_1_31_2_35_F_153| true)
(= |memory_model::choice_ws-ext_0_11_2_2_F_154| true)
(= |memory_model::choice_ws-ext_0_12_2_16_F_155| true)
(= |memory_model::choice_ws-ext_0_18_2_18_F_156| true)
(= |memory_model::choice_ws-ext_0_19_2_17_F_157| true)
(= |memory_model::choice_ws-ext_0_21_1_8_F_158| true)
(= |memory_model::choice_ws-ext_0_21_1_26_F_159| true)
(= |memory_model::choice_ws-ext_0_22_2_11_F_160| true)
(= |memory_model::choice_ws-ext_0_22_2_30_F_161| true)
(= |memory_model::choice_ws-ext_0_23_1_11_F_162| true)
(= |memory_model::choice_ws-ext_0_52_1_11_F_163| false)
(= |memory_model::choice_ws-ext_0_24_1_10_F_164| true)
(= |memory_model::choice_ws-ext_0_24_1_25_F_165| true)
(= |memory_model::choice_ws-ext_0_25_1_9_F_166| true)
(= |memory_model::choice_ws-ext_0_25_2_10_F_167| true)
(= |memory_model::choice_ws-ext_0_25_2_29_F_168| true)
(= |memory_model::choice_ws-ext_1_9_2_10_F_169| true)
(= |memory_model::choice_ws-ext_1_9_2_29_F_170| true)
(= |memory_model::choice_ws-ext_0_28_1_14_F_171| true)
(= |memory_model::choice_ws-ext_0_28_2_13_F_172| true)
(= |memory_model::choice_ws-ext_1_14_2_13_F_173| true)
(= |memory_model::choice_ws-ext_0_29_1_12_F_174| true)
(= |memory_model::choice_ws-ext_0_29_1_27_F_175| true)
(= |memory_model::choice_ws-ext_0_29_2_19_F_176| true)
(= |memory_model::choice_ws-ext_0_29_2_31_F_177| true)
(= |memory_model::choice_ws-ext_0_54_1_12_F_178| false)
(= |memory_model::choice_ws-ext_0_54_1_27_F_179| false)
(= |memory_model::choice_ws-ext_0_54_2_19_F_180| false)
(= |memory_model::choice_ws-ext_0_54_2_31_F_181| false)
(= |memory_model::choice_ws-ext_1_12_2_19_F_182| true)
(= |memory_model::choice_ws-ext_1_12_2_31_F_183| true)
(= |memory_model::choice_ws-ext_1_27_2_19_F_184| false)
(= |memory_model::choice_ws-ext_1_27_2_31_F_185| false)
(= |memory_model::choice_ws-ext_0_30_1_15_F_186| true)
(= |memory_model::choice_ws-ext_0_30_2_12_F_187| true)
(= |memory_model::choice_ws-ext_1_15_2_12_F_188| true)
(= |memory_model::choice_ws-ext_0_31_1_13_F_189| true)
(= |memory_model::choice_ws-ext_0_31_1_28_F_190| true)
(= |memory_model::choice_ws-ext_0_31_2_14_F_191| true)
(= |memory_model::choice_ws-ext_0_31_2_32_F_192| true)
(= |memory_model::choice_ws-ext_0_55_1_13_F_193| false)
(= |memory_model::choice_ws-ext_0_55_1_28_F_194| false)
(= |memory_model::choice_ws-ext_0_55_2_14_F_195| false)
(= |memory_model::choice_ws-ext_0_55_2_32_F_196| false)
(= |memory_model::choice_ws-ext_1_13_2_14_F_197| true)
(= |memory_model::choice_ws-ext_1_13_2_32_F_198| true)
(= |memory_model::choice_ws-ext_1_28_2_14_F_199| false)
(= |memory_model::choice_ws-ext_1_28_2_32_F_200| false)
(= |memory_model::choice_ws-ext_0_32_1_17_F_201| true)
(= |memory_model::choice_ws-ext_0_32_2_0_F_202| true)
(= |memory_model::choice_ws-ext_1_17_2_0_F_203| true)
(= |memory_model::choice_ws-ext_0_15_2_21_F_204| true)
(= |memory_model::choice_ws-ext_0_16_2_20_F_205| true)
(= |main$tmp_guard0#3| #b00000001)
(= |__CPROVER_next_thread_id#3| #b00000000000000000000000000000001)
(= |__unbuffered_cnt#2| #b00000000000000000000000000000010)
(= |x$w_buff0_used#2| #b00000000)
(= |x$r_buff0_thd0#2| #b00000000)
(= |x$w_buff0#2| #b00000000000000000000000000000001)
(= |x$w_buff1_used#2| #b00000000)
(= |x$r_buff1_thd0#2| #b00000000)
(= |x$w_buff1#2| #b00000000000000000000000000000000)
(= |x#2| #b00000000000000000000000000000001)
(= |x#4| #b00000000000000000000000000000001)
(= |x$w_buff0_used#6| #b00000000)
(= |x$w_buff1_used#6| #b00000000)
(= |x$r_buff0_thd0#8| #b00000000)
(= |x$r_buff1_thd0#7| #b00000000)
(= |y#2| #b00000000000000000000000000000010)
(= |__unbuffered_p1_EAX#2| #b00000000000000000000000000000010)
(= |__unbuffered_p1_EBX#2| #b00000000000000000000000000000000)
(= |main$tmp_guard1#2| #b00000000)
(= |main$tmp_guard1#3| #b10000000)
(= |main$tmp_guard1#6| #b00000000)
(= |pthread_create::1::this_thread_id!1@0#0| #b00000000000000000000000000000000)
(= |x$w_buff0#4| #b00000000000000000000000000000000)
(= |x$w_buff0_used#11| #b00000000)
(= |x$r_buff0_thd0#11| #b00000000)
(= |x$r_buff1_thd0#9| #b00000000)
(= |x$r_buff1_thd0#10| #b10000000)
(= |x$r_buff0_thd1#2| #b00000000)
(= |x$r_buff1_thd1#2| #b00000000)
(= |x$r_buff1_thd1#3| #b10000000)
(= |x$r_buff0_thd2#2| #b00000000)
(= |x$r_buff1_thd2#2| #b00000000)
(= |x$r_buff1_thd2#3| #b10000000)
(= |x$r_buff0_thd1#4| #b00000001)
(= |y#4| #b00000000000000000000000000000001)
(= |y#5| #b10000000000000000000000000000000)
(= |x$w_buff0_used#14| #b00000001)
(= |x$r_buff0_thd1#6| #b00000001)
(= |x$w_buff0#7| #b00000000000000000000000000000001)
(= |x$w_buff1_used#10| #b00000000)
(= |x$r_buff1_thd1#5| #b00000000)
(= |x$w_buff1#5| #b00000000000000000000000000000000)
(= |x#6| #b00000000000000000000000000000000)
(= |x#8| #b00000000000000000000000000000001)
(= |x$w_buff0_used#18| #b00000000)
(= |x$w_buff1_used#14| #b00000000)
(= |x$r_buff0_thd1#12| #b00000001)
(= |x$r_buff1_thd1#10| #b00000000)
(= |__unbuffered_cnt#4| #b00000000000000000000000000000000)
(= |__unbuffered_cnt#6| #b00000000000000000000000000000001)
(= |pthread_create::1::this_thread_id!2@0#0| #b00000000000000000000000000000000)
(= |y#8| #b00000000000000000000000000000010)
(= |nondet_symex::nondet2| #b10000000000000000000000000000000)
(= |x#10| #b00000000000000000000000000000000)
(= |x$w_buff0_used#23| #b00000001)
(= |x$r_buff0_thd2#4| #b00000000)
(= |x$w_buff1_used#17| #b00000000)
(= |x$r_buff1_thd2#5| #b00000000)
(= |x$w_buff0#9| #b00000000000000000000000000000001)
(= |x$w_buff1#7| #b00000000000000000000000000000000)
(= |x$w_buff0_used#26| #b00000001)
(= |x$r_buff0_thd2#7| #b00000000)
(= |x$w_buff0#12| #b00000000000000000000000000000001)
(= |x$w_buff1_used#20| #b00000000)
(= |x$r_buff1_thd2#8| #b00000000)
(= |x$w_buff1#10| #b00000000000000000000000000000000)
(= |x#14| #b00000000000000000000000000000000)
(= |__unbuffered_cnt#8| #b00000000000000000000000000000001)
(= |__CPROVER_threads_exited#1$wclk$8| #b00001001)
(= |__CPROVER_threads_exited#2$rclk$8| #b11011011)
(= |__CPROVER_threads_exited#5$wclk$8| #b11001111)
(= |__CPROVER_threads_exited#4$rclk$8| #b11001001)
(= |__CPROVER_threads_exited#3$wclk$8| #b11101110)
(= |x#9$wclk$8| #b10000110)
(= |x#2$rclk$8| #b11100110)
(= |x#13$wclk$8| #b10000100)
(= |x#16$wclk$8| #b10000101)
(= |x#1$wclk$8| #b00010111)
(= |x#6$rclk$8| #b10000110)
(= |x#5$wclk$8| #b11100110)
(= |x#10$rclk$8| #b10000100)
(= |x#14$rclk$8| #b10000101)
(= |__unbuffered_cnt#7$wclk$8| #b10000111)
(= |__unbuffered_cnt#2$rclk$8| #b11010111)
(= |__unbuffered_cnt#10$wclk$8| #b10010110)
(= |__unbuffered_cnt#1$wclk$8| #b00001010)
(= |__unbuffered_cnt#4$rclk$8| #b10000111)
(= |__unbuffered_cnt#8$rclk$8| #b10010110)
(= |__unbuffered_p1_EAX#4$wclk$8| #b01101011)
(= |__unbuffered_p1_EAX#2$rclk$8| #b11101101)
(= |__unbuffered_p1_EBX#4$wclk$8| #b10000100)
(= |__unbuffered_p1_EBX#2$rclk$8| #b11101101)
(= |main$tmp_guard1#5| #b00000000)
(= |x$r_buff0_thd0#1$wclk$8| #b00011010)
(= |x$r_buff0_thd0#11$rclk$8| #b01010111)
(= |x$r_buff0_thd0#10$wclk$8| #b11100110)
(= |x$r_buff0_thd1#1$wclk$8| #b00011100)
(= |x$r_buff0_thd1#2$rclk$8| #b01010111)
(= |x$r_buff0_thd1#6$rclk$8| #b10000110)
(= |x$r_buff0_thd2#1$wclk$8| #b00011101)
(= |x$r_buff0_thd2#2$rclk$8| #b01010111)
(= |x$r_buff0_thd2#6$wclk$8| #b10000100)
(= |x$r_buff0_thd2#9$wclk$8| #b10000101)
(= |x$r_buff0_thd2#4$rclk$8| #b10000100)
(= |x$r_buff0_thd2#7$rclk$8| #b10000101)
(= |x$r_buff1_thd0#11$wclk$8| #b01010111)
(= |x$r_buff1_thd0#2$rclk$8| #b11100110)
(= |x$r_buff1_thd0#1$wclk$8| #b00011110)
(= |x$r_buff1_thd0#10$rclk$8| #b01010111)
(= |x$r_buff1_thd0#8$wclk$8| #b11100110)
(= |x$r_buff1_thd1#1$wclk$8| #b00011111)
(= |x$r_buff1_thd1#3$rclk$8| #b01010111)
(= |x$r_buff1_thd1#5$rclk$8| #b10000110)
(= |x$r_buff1_thd2#1$wclk$8| #b00100001)
(= |x$r_buff1_thd2#3$rclk$8| #b01010111)
(= |x$r_buff1_thd2#7$wclk$8| #b10000100)
(= |x$r_buff1_thd2#10$wclk$8| #b10000101)
(= |x$r_buff1_thd2#5$rclk$8| #b10000100)
(= |x$r_buff1_thd2#4$wclk$8| #b01010111)
(= |x$r_buff1_thd2#8$rclk$8| #b10000101)
(= |x$w_buff0#6$wclk$8| #b01010111)
(= |x$w_buff0#2$rclk$8| #b11100110)
(= |x$w_buff0#11$wclk$8| #b10000100)
(= |x$w_buff0#1$wclk$8| #b00101100)
(= |x$w_buff0#4$rclk$8| #b01010111)
(= |x$w_buff0#7$rclk$8| #b10000110)
(= |x$w_buff0#9$rclk$8| #b10000100)
(= |x$w_buff0#12$rclk$8| #b10000101)
(= |x$w_buff0_used#13$wclk$8| #b01010111)
(= |x$w_buff0_used#2$rclk$8| #b11100110)
(= |x$w_buff0_used#22$wclk$8| #b10000110)
(= |x$w_buff0_used#25$wclk$8| #b10000100)
(= |x$w_buff0_used#28$wclk$8| #b10000101)
(= |x$w_buff0_used#1$wclk$8| #b00101101)
(= |x$w_buff0_used#11$rclk$8| #b01010111)
(= |x$w_buff0_used#10$wclk$8| #b11100110)
(= |x$w_buff0_used#14$rclk$8| #b10000110)
(= |x$w_buff0_used#23$rclk$8| #b10000100)
(= |x$w_buff0_used#26$rclk$8| #b10000101)
(= |x$w_buff1#4$wclk$8| #b01010111)
(= |x$w_buff1#2$rclk$8| #b11100110)
(= |x$w_buff1#9$wclk$8| #b10000100)
(= |x$w_buff1#1$wclk$8| #b00101110)
(= |x$w_buff1#5$rclk$8| #b10000110)
(= |x$w_buff1#7$rclk$8| #b10000100)
(= |x$w_buff1#10$rclk$8| #b10000101)
(= |x$w_buff1_used#9$wclk$8| #b01010111)
(= |x$w_buff1_used#2$rclk$8| #b11100110)
(= |x$w_buff1_used#16$wclk$8| #b10000110)
(= |x$w_buff1_used#19$wclk$8| #b10000100)
(= |x$w_buff1_used#22$wclk$8| #b10000101)
(= |x$w_buff1_used#1$wclk$8| #b01001000)
(= |x$w_buff1_used#10$rclk$8| #b10000110)
(= |x$w_buff1_used#8$wclk$8| #b11100110)
(= |x$w_buff1_used#17$rclk$8| #b10000100)
(= |x$w_buff1_used#20$rclk$8| #b10000101)
(= |y#6$wclk$8| #b01100000)
(= |y#2$rclk$8| #b11101101)
(= |y#7$wclk$8| #b01100011)
(= |y#1$wclk$8| #b01001110)
(= |y#5$rclk$8| #b01100000)
(= |y#8$rclk$8| #b01101011)
(= |__unbuffered_p1_EAX#1$wclk$8| #b00001011)
(= |__unbuffered_p1_EBX#1$wclk$8| #b00001101)
(= |x$flush_delayed#1$wclk$8| #b00011000)
(= |x$flush_delayed#3$wclk$8| #b10000100)
(= |x$mem_tmp#1$wclk$8| #b00011001)
(= |x$mem_tmp#2$wclk$8| #b10000100)
(= |x$r_buff0_thd1#5$wclk$8| #b01010111)
(= |x$r_buff0_thd1#14$wclk$8| #b10000110)
(= |x$r_buff1_thd1#4$wclk$8| #b01010111)
(= |x$r_buff1_thd1#11$wclk$8| #b10000110)
(= |weak$$choice0#1$wclk$8| #b00010101)
(= |weak$$choice0#2$wclk$8| #b10000100)
(= |weak$$choice2#1$wclk$8| #b00010110)
(= |weak$$choice2#2$wclk$8| #b10000100)
(= t1$36$spwnclk$8 #b01010010)
(= t1$41$spwnclk$8 #b01010110)
(= |main::1::t1714!0@1$wclk$8| #b00000000)
(= |__CPROVER_dead_object#1$wclk$8| #b00000001)
(= |__CPROVER_deallocated#1$wclk$8| #b00000010)
(= |__CPROVER_malloc_is_new_array#1$wclk$8| #b00000011)
(= |__CPROVER_malloc_object#1$wclk$8| #b00000100)
(= |__CPROVER_malloc_size#1$wclk$8| #b00000101)
(= |__CPROVER_memory_leak#1$wclk$8| #b00000110)
(= |__CPROVER_next_thread_id#1$wclk$8| #b00000111)
(= |__CPROVER_pipe_count#1$wclk$8| #b00001000)
(= |main$tmp_guard0#1$wclk$8| #b00010010)
(= |main$tmp_guard1#1$wclk$8| #b00010011)
(= |x$read_delayed#1$wclk$8| #b00100100)
(= |x$read_delayed_var#1$wclk$8| #b00100101)
(= |main::1::t1713!0@1#1$wclk$8| #b01001111)
(= |__CPROVER_next_thread_id#2$wclk$8| #b01010000)
(= |main::1::t1713!0@1#2$wclk$8| #b01010001)
(= |main::1::t1714!0@1#1$wclk$8| #b01010011)
(= |__CPROVER_next_thread_id#3$rclk$8| #b01010100)
(= |__CPROVER_next_thread_id#5$wclk$8| #b01010100)
(= |main::1::t1714!0@1#2$wclk$8| #b01010101)
(= |main$tmp_guard0#2$wclk$8| #b11010111)
(= |main$tmp_guard0#3$rclk$8| #b11011100)
(= |x$r_buff0_thd0#2$rclk$8| #b11100110)
(= |main$tmp_guard1#3$rclk$8| #b11101101)
(= |main$tmp_guard1#4$wclk$8| #b11101101)
(= |main$tmp_guard1#5$rclk$8| #b11101110)
(= |main$tmp_guard1#6$rclk$8| #b11101111)
(= array_of.0 @fun_7)
(= |__CPROVER_threads_exited#2| @fun_5)
(= |__CPROVER_threads_exited#4| @fun_7)
(function @fun_7
 (type (Array (_ BitVec 32) (_ BitVec 1)))
 (= (@fun_7 #b00000000000000000000000000000000) #b0)
 (default #b1))
(function @fun_5
 (type (Array (_ BitVec 32) (_ BitVec 1)))
 (default #b1))

real	0m0.016s
user	0m0.013s
sys	0m0.003s
State: AC Run_time: 0.017905235290527344